'hugeuniform110'
150 75 75
147
146
143
140
139
138
132
131
131
130
130
129
126
125
124
121
120
120
117
117
115
114
113
110
108
102
101
99
99
97
96
93
90
87
85
82
81
74
72
68
67
67
65
64
64
64
63
62
61
51
51
50
49
46
46
42
41
40
39
39
39
37
31
29
29
29
28
26
14
11
9
6
5
5
1
